Copyright (C) 2013-2015, Filipe Brandao
Build (method = -2)
  #dp: 1333
  Step-3' Graph: 54 vertices and 607 arcs (0.00s)
  Step-4' Graph: 53 vertices and 605 arcs (0.00s)
  #V4/#V3 = 0.98
  #A4/#A3 = 1.00
Ready! (0.00s)
Optimize a model with 94 rows, 606 columns and 1716 nonzeros
Found heuristic solution: objective 76
Presolve removed 22 rows and 22 columns
Presolve time: 0.01s
Presolved: 72 rows, 584 columns, 1652 nonzeros
Variable types: 0 continuous, 584 integer (170 binary)
Optimize a model with 72 rows, 584 columns and 1652 nonzeros
Presolved: 72 rows, 584 columns, 1652 nonzeros

Root barrier log...

Ordering time: 0.00s

Barrier statistics:
 AA' NZ     : 1.028e+03
 Factor NZ  : 1.942e+03
 Factor Ops : 6.866e+04 (less than 1 second per iteration)
 Threads    : 1

                  Objective                Residual
Iter       Primal          Dual         Primal    Dual     Compl     Time
   0   7.85001021e+02 -2.81309109e+03  4.27e+03 5.46e-02  1.85e+01     0s
   1   2.62215825e+02 -1.08012704e+03  6.12e+02 6.66e-16  3.15e+00     0s
   2   1.11064211e+02 -3.10481274e+02  5.50e+01 5.45e-03  4.95e-01     0s
   3   7.69114736e+01 -7.00509834e+01  6.80e+00 1.43e-03  1.35e-01     0s
   4   6.04177648e+01  1.48066723e+01  1.87e+00 9.34e-05  4.02e-02     0s
   5   5.28460187e+01  2.94410474e+01  6.87e-01 4.64e-16  2.02e-02     0s
   6   5.12078130e+01  3.92739049e+01  4.58e-01 5.92e-16  1.03e-02     0s
   7   4.93705772e+01  4.55621151e+01  2.07e-01 6.79e-16  3.33e-03     0s
   8   4.80642727e+01  4.78309652e+01  9.32e-03 4.91e-16  2.02e-04     0s
   9   4.80000360e+01  4.79998452e+01  7.11e-14 4.84e-16  1.61e-07     0s
  10   4.80000000e+01  4.79999998e+01  3.55e-14 6.11e-16  1.61e-10     0s
  11   4.80000000e+01  4.80000000e+01  2.84e-14 6.66e-16  1.61e-13     0s

Barrier solved model in 11 iterations and 0.00 seconds
Optimal objective 4.80000000e+01


Root relaxation: objective 4.800000e+01, 260 iterations, 0.00 seconds

    Nodes    |    Current Node    |     Objective Bounds      |     Work
 Expl Unexpl |  Obj  Depth IntInf | Incumbent    BestBd   Gap | It/Node Time

*    0     0               0      48.0000000   48.00000  0.00%     -    0s

Explored 0 nodes (321 simplex iterations) in 0.01 seconds
Thread count was 1 (of 4 available processors)

Optimal solution found (tolerance 0.00e+00)
Best objective 4.800000000000e+01, best bound 4.800000000000e+01, gap 0.0%
Preprocessing time: 0.00 seconds
Gurobi run time: 0.01 seconds
Total run time: 0.01 seconds
Objective: 48
Solution:
1 x [i=1, i=35]
1 x [i=1, i=37]
2 x [i=2, i=34]
1 x [i=3, i=33]
1 x [i=3, i=35]
2 x [i=4, i=32]
1 x [i=4, i=39, i=40]
1 x [i=5, i=36]
1 x [i=6, i=31]
3 x [i=7, i=29]
3 x [i=8]
1 x [i=8, i=29]
2 x [i=9]
1 x [i=9, i=29]
1 x [i=10, i=35, i=40]
2 x [i=11, i=27]
1 x [i=12, i=25]
1 x [i=13, i=24]
1 x [i=14, i=24]
1 x [i=15, i=24]
3 x [i=16, i=22]
2 x [i=17, i=21]
1 x [i=17, i=22]
2 x [i=18, i=21]
5 x [i=19, i=20]
2 x [i=23, i=25]
3 x [i=26, i=28, i=30]
1 x [i=28, i=28, i=38, i=41]
1 x [i=28, i=28, i=38, i=38]
